Maximize
 
Subject To
 R0: - C0 - C1 - C2 = 0
 R1: C1 - C3 - 2 C5 = 0
 R2: C2 + C5 - C6 = 0
 R3: - C3 - C4 = 0
 R4: 2 C3 + C6 - C8 = 0
 R5: C5 - C7 = 0
Bounds
 C0 <= 999999
 C1 <= 999999
 C2 <= 999999
 C3 <= 999999
 C4 <= 999999
 C5 <= 999999
 C6 <= 999999
 C7 <= 999999
 0.5 <= C8 <= 999999
End
